minimize
obj: 2 y_1,3_ + 5 y_1,4_ + 5 y_1,5_ + 1 y_2,1_ + 2 y_2,2_ + 3 y_2,4_ + 3 y_2,5_ + 2 y_3,1_ + 5 y_3,2_ + 3 y_3,3_ + 3 y_3,5_ + 3 y_4,1_ + 5 y_4,2_ + 3 y_4,3_ + 3 y_4,4_ + 4 y_5,1_ + 6 y_5,2_ + 4 y_5,3_ + 2 y_5,4_ + 1 y_5,5_
subject to
c1_2: 22 y_1,1_ + 3 y_2,1_ + 1 y_3,1_ + 2 y_4,1_ + 4 y_5,1_ <= 26
c2_2: 6 y_1,2_ + 19 y_2,2_ + 1 y_3,2_ + 2 y_4,2_ + 4 y_5,2_ <= 26
c3_2: 6 y_1,3_ + 3 y_2,3_ + 17 y_3,3_ + 2 y_4,3_ + 4 y_5,3_ <= 26
c4_2: 6 y_1,4_ + 3 y_2,4_ + 1 y_3,4_ + 18 y_4,4_ + 4 y_5,4_ <= 26
c5_2: 6 y_1,5_ + 3 y_2,5_ + 1 y_3,5_ + 2 y_4,5_ + 20 y_5,5_ <= 26
c6_1: 